NAME 
ROWS
 N  OBJ
 L  R0      
 L  R1      
 E  R2      
 E  R3      
 E  R4      
 E  R5      
 E  R6      
COLUMNS
    MARKER    'MARKER'                 'INTORG'
    I0(3)     OBJ       9
    I0(3)     R0        -159
    I0(3)     R1        27
    I0(3)     R6        1
    I1(4)     OBJ       2
    I1(4)     R0        132
    I1(4)     R1        12
    I1(4)     R2        11
    I1(4)     R6        1
    MARKER    'MARKER'                 'INTEND'
    C2(3)     R0        8
    C2(3)     R1        -10
    C2(3)     R2        16
    C3(4)     OBJ       -1
    C3(4)     R0        -7
    C3(4)     R1        -8
    C3(4)     R4        15
    C3(4)     R5        3
    C4(6)     OBJ       -3
    C4(6)     R0        9
    C4(6)     R1        -5
    C4(6)     R2        8
    C4(6)     R3        9
    C4(6)     R4        12
    C4(6)     R5        14
    C5(1)     R2        1
    C6(1)     R3        1
    C7(1)     R4        1
    C8(1)     R5        1
    C9(1)     R6        1
RHS
    RHS1      R0        6.7281609195402325e+01
    RHS1      R1        -5.0277298850574695e+01
    RHS1      R2        75
    RHS1      R3        74
    RHS1      R4        85
    RHS1      R5        93
BOUNDS
 UP BND1      I0(3)     1
 UP BND1      I1(4)     1
ENDATA
